(set-info :smt-lib-version 2.6)
(set-logic QF_NIA)
(set-info :source |
Generated by: Cristina Borralleras, Daniel Larraz, Albert Oliveras, Enric Rodriguez-Carbonell, Albert Rubio
Generated on: 2017-04-27
Generator: VeryMax
Application: Termination proving
Target solver: barcelogic
|)
(set-info :license "https://creativecommons.org/licenses/by/4.0/")
(set-info :category "industrial")
(set-info :status unsat)
(declare-fun Nl4arg11 () Int)
(declare-fun Nl4arg21 () Int)
(declare-fun Nl4arg31 () Int)
(declare-fun Nl4arg41 () Int)
(declare-fun Nl4arg51 () Int)
(declare-fun lam0n0 () Int)
(declare-fun lam0n1 () Int)
(declare-fun lam0n2 () Int)
(declare-fun lam0n3 () Int)
(declare-fun lam0n4 () Int)
(declare-fun lam0n5 () Int)
(declare-fun lam0n6 () Int)
(declare-fun lam0n7 () Int)
(declare-fun lam0n8 () Int)
(declare-fun lam0n9 () Int)
(declare-fun lam0n10 () Int)
(declare-fun lam0n11 () Int)
(declare-fun lam0n12 () Int)
(declare-fun lam0n13 () Int)
(declare-fun Nl4CT1 () Int)
(declare-fun lam1n0 () Int)
(declare-fun lam1n1 () Int)
(declare-fun lam1n2 () Int)
(declare-fun lam1n3 () Int)
(declare-fun lam1n4 () Int)
(declare-fun lam1n5 () Int)
(declare-fun lam1n6 () Int)
(declare-fun lam1n7 () Int)
(declare-fun lam1n8 () Int)
(declare-fun lam1n9 () Int)
(declare-fun lam1n10 () Int)
(declare-fun lam1n11 () Int)
(declare-fun lam1n12 () Int)
(declare-fun lam1n13 () Int)
(declare-fun lam2n0 () Int)
(declare-fun lam2n1 () Int)
(declare-fun lam2n2 () Int)
(declare-fun lam2n3 () Int)
(declare-fun lam2n4 () Int)
(declare-fun lam2n5 () Int)
(declare-fun lam2n6 () Int)
(declare-fun lam2n7 () Int)
(declare-fun lam2n8 () Int)
(declare-fun lam2n9 () Int)
(declare-fun lam2n10 () Int)
(declare-fun lam2n11 () Int)
(declare-fun lam2n12 () Int)
(declare-fun arg1 () Int)
(declare-fun undef21 () Int)
(declare-fun undef41 () Int)
(declare-fun undef42 () Int)
(declare-fun undef44 () Int)
(declare-fun undef66 () Int)
(declare-fun arg2 () Int)
(declare-fun arg3 () Int)
(declare-fun undef24 () Int)
(declare-fun undef25 () Int)
(declare-fun lam3n0 () Int)
(declare-fun lam3n1 () Int)
(declare-fun lam3n2 () Int)
(declare-fun lam3n3 () Int)
(declare-fun lam3n4 () Int)
(declare-fun lam3n5 () Int)
(declare-fun lam3n6 () Int)
(declare-fun lam3n7 () Int)
(declare-fun lam3n8 () Int)
(declare-fun lam3n9 () Int)
(declare-fun lam3n10 () Int)
(declare-fun lam3n11 () Int)
(declare-fun lam3n12 () Int)
(declare-fun lam3n13 () Int)
(declare-fun lam4n0 () Int)
(declare-fun lam4n1 () Int)
(declare-fun lam4n2 () Int)
(declare-fun lam4n3 () Int)
(declare-fun lam4n4 () Int)
(declare-fun lam4n5 () Int)
(declare-fun lam4n6 () Int)
(declare-fun lam4n7 () Int)
(declare-fun lam4n8 () Int)
(declare-fun lam4n9 () Int)
(declare-fun lam4n10 () Int)
(declare-fun lam4n11 () Int)
(declare-fun lam4n12 () Int)
(declare-fun lam4n13 () Int)
(assert ( and ( <= ( - 1 ) Nl4arg11 ) ( <= Nl4arg11 1 ) ( <= ( - 1 ) Nl4arg21 ) ( <= Nl4arg21 1 ) ( <= ( - 1 ) Nl4arg31 ) ( <= Nl4arg31 1 ) ( <= ( - 1 ) Nl4arg41 ) ( <= Nl4arg41 1 ) ( <= ( - 1 ) Nl4arg51 ) ( <= Nl4arg51 1 ) ))
(assert ( or ( and ( >= lam0n0 0 ) ( >= lam0n1 0 ) ( >= lam0n2 0 ) ( >= lam0n3 0 ) ( >= lam0n4 0 ) ( >= lam0n5 0 ) ( >= lam0n6 0 ) ( >= lam0n7 0 ) ( >= lam0n8 0 ) ( >= lam0n9 0 ) ( >= lam0n10 0 ) ( >= lam0n11 0 ) ( >= lam0n12 0 ) ( >= lam0n13 0 ) ( > ( + ( * 1 lam0n0 ) ( * 1 lam0n1 ) ( * 1 lam0n2 ) ( * 1 lam0n3 ) ( * 1 lam0n4 ) ( * 1 lam0n5 ) ( * 1 lam0n6 ) ( * 2 lam0n12 ) ( * Nl4CT1 lam0n13 ) ( - 1 ) ) 0 ) ( = ( + ( * ( - 1 ) lam0n0 ) ( * ( - 1 ) lam0n8 ) ( * Nl4arg11 lam0n13 ) ) 0 ) ( = ( + ( * 1 lam0n1 ) ( * Nl4arg21 lam0n13 ) ) 0 ) ( = ( + ( * ( - 1 ) lam0n1 ) ( * ( - 1 ) lam0n12 ) ( * Nl4arg31 lam0n13 ) ) 0 ) ( = ( * Nl4arg41 lam0n13 ) 0 ) ( = ( * Nl4arg51 lam0n13 ) 0 ) ( = ( + ( * ( - 1 ) lam0n2 ) ( * 1 lam0n8 ) ) 0 ) ( = ( + ( * ( - 1 ) lam0n3 ) ( * ( - 1 ) lam0n9 ) ) 0 ) ( = ( + ( * ( - 1 ) lam0n4 ) ( * ( - 1 ) lam0n10 ) ) 0 ) ( = ( + ( * ( - 1 ) lam0n5 ) ( * ( - 1 ) lam0n11 ) ) 0 ) ( = ( + ( * ( - 1 ) lam0n6 ) ( * 1 lam0n9 ) ( * 1 lam0n10 ) ( * 1 lam0n11 ) ) 0 ) ) ( and ( >= lam1n0 0 ) ( >= lam1n1 0 ) ( >= lam1n2 0 ) ( >= lam1n3 0 ) ( >= lam1n4 0 ) ( >= lam1n5 0 ) ( >= lam1n6 0 ) ( >= lam1n7 0 ) ( >= lam1n8 0 ) ( >= lam1n9 0 ) ( >= lam1n10 0 ) ( >= lam1n11 0 ) ( >= lam1n12 0 ) ( >= lam1n13 0 ) ( > ( + ( * 1 lam1n0 ) ( * 1 lam1n1 ) ( * 1 lam1n2 ) ( * 1 lam1n3 ) ( * 1 lam1n4 ) ( * 1 lam1n5 ) ( * 1 lam1n6 ) ( * 2 lam1n12 ) ( * Nl4CT1 lam1n13 ) ( - 1 ( + ( + ( + ( + Nl4CT1 ( * Nl4arg11 0 ) ) ( * Nl4arg21 1 ) ) ( * Nl4arg41 0 ) ) ( * Nl4arg51 0 ) ) ) ) 0 ) ( = ( + ( * ( - 1 ) lam1n0 ) ( * ( - 1 ) lam1n8 ) ( * Nl4arg11 lam1n13 ) ) 0 ) ( = ( + ( * 1 lam1n1 ) ( * Nl4arg21 lam1n13 ) ( - ( + 0 ( * Nl4arg21 1 ) ) ) ) 0 ) ( = ( + ( * ( - 1 ) lam1n1 ) ( * ( - 1 ) lam1n12 ) ( * Nl4arg31 lam1n13 ) ( - ( + 0 Nl4arg31 ) ) ) 0 ) ( = ( * Nl4arg41 lam1n13 ) 0 ) ( = ( * Nl4arg51 lam1n13 ) 0 ) ( = ( + ( * ( - 1 ) lam1n2 ) ( * 1 lam1n8 ) ( - ( + 0 ( * Nl4arg11 1 ) ) ) ) 0 ) ( = ( - ( + 0 ( * Nl4arg41 1 ) ) ) 0 ) ( = ( - ( + 0 ( * Nl4arg51 1 ) ) ) 0 ) ( = ( + ( * ( - 1 ) lam1n3 ) ( * ( - 1 ) lam1n9 ) ) 0 ) ( = ( + ( * ( - 1 ) lam1n4 ) ( * ( - 1 ) lam1n10 ) ) 0 ) ( = ( + ( * ( - 1 ) lam1n5 ) ( * ( - 1 ) lam1n11 ) ) 0 ) ( = ( + ( * ( - 1 ) lam1n6 ) ( * 1 lam1n9 ) ( * 1 lam1n10 ) ( * 1 lam1n11 ) ) 0 ) ) ))
(assert ( and ( <= ( + 1 ( * ( - 1 ) arg1 ) ) 0 ) ( <= ( + 1 ( * ( - 1 ) undef21 ) ) 0 ) ( <= ( + 1 ( * ( - 1 ) undef41 ) ) 0 ) ( <= ( + 1 ( * ( - 1 ) undef42 ) ) 0 ) ( <= ( + 1 ( * ( - 1 ) undef44 ) ) 0 ) ( <= ( + 1 ( * ( - 1 ) undef66 ) ) 0 ) ( not ( <= 1 0 ) ) ( <= ( + ( * ( - 1 ) arg1 ) undef21 ) 0 ) ( <= ( + ( * ( - 1 ) arg2 ) arg3 ) 0 ) ( <= ( + ( * ( - 1 ) undef41 ) undef66 ) 0 ) ( <= ( + ( * ( - 1 ) undef42 ) undef66 ) 0 ) ( <= ( + ( * ( - 1 ) undef44 ) undef66 ) 0 ) ( <= ( + 2 ( * ( - 1 ) arg3 ) ) 0 ) ( <= ( + ( + ( + ( + ( + Nl4CT1 ( * Nl4arg11 0 ) ) ( * Nl4arg21 0 ) ) ( * Nl4arg41 0 ) ) ( * Nl4arg51 0 ) ) ( * ( + 0 Nl4arg31 ) arg3 ) ( * ( + 0 ( * Nl4arg11 1 ) ) undef21 ) ( * ( + 0 ( * Nl4arg41 1 ) ) undef24 ) ( * ( + 0 ( * Nl4arg51 1 ) ) undef25 ) ) 0 ) ))
(assert ( or ( or ( and ( >= lam3n0 0 ) ( >= lam3n1 0 ) ( >= lam3n2 0 ) ( >= lam3n3 0 ) ( >= lam3n4 0 ) ( >= lam3n5 0 ) ( >= lam3n6 0 ) ( >= lam3n7 0 ) ( >= lam3n8 0 ) ( >= lam3n9 0 ) ( >= lam3n10 0 ) ( >= lam3n11 0 ) ( >= lam3n12 0 ) ( >= lam3n13 0 ) ( > ( + ( * 1 lam3n0 ) ( * 1 lam3n1 ) ( * 1 lam3n2 ) ( * 1 lam3n3 ) ( * 1 lam3n4 ) ( * 2 lam3n12 ) ( * Nl4CT1 lam3n13 ) ( - 1 ) ) 0 ) ( = ( + ( * ( - 1 ) lam3n0 ) ( * ( - 1 ) lam3n5 ) ( * ( - 1 ) lam3n6 ) ( * ( - 1 ) lam3n7 ) ( * Nl4arg11 lam3n13 ) ) 0 ) ( = ( + ( * ( - 1 ) lam3n8 ) ( * Nl4arg21 lam3n13 ) ) 0 ) ( = ( + ( * 1 lam3n8 ) ( * ( - 1 ) lam3n12 ) ( * Nl4arg31 lam3n13 ) ) 0 ) ( = ( * Nl4arg41 lam3n13 ) 0 ) ( = ( * Nl4arg51 lam3n13 ) 0 ) ( = ( + ( * ( - 1 ) lam3n1 ) ( * 1 lam3n5 ) ( * ( - 1 ) lam3n9 ) ) 0 ) ( = ( + ( * ( - 1 ) lam3n2 ) ( * 1 lam3n6 ) ( * ( - 1 ) lam3n10 ) ) 0 ) ( = ( + ( * ( - 1 ) lam3n3 ) ( * 1 lam3n7 ) ( * ( - 1 ) lam3n11 ) ) 0 ) ( = ( + ( * ( - 1 ) lam3n4 ) ( * 1 lam3n9 ) ( * 1 lam3n10 ) ( * 1 lam3n11 ) ) 0 ) ) ( and ( >= lam4n0 0 ) ( >= lam4n1 0 ) ( >= lam4n2 0 ) ( >= lam4n3 0 ) ( >= lam4n4 0 ) ( >= lam4n5 0 ) ( >= lam4n6 0 ) ( >= lam4n7 0 ) ( >= lam4n8 0 ) ( >= lam4n9 0 ) ( >= lam4n10 0 ) ( >= lam4n11 0 ) ( >= lam4n12 0 ) ( >= lam4n13 0 ) ( > ( + ( * 1 lam4n0 ) ( * 1 lam4n1 ) ( * 1 lam4n2 ) ( * 1 lam4n3 ) ( * 1 lam4n4 ) ( * 2 lam4n12 ) ( * Nl4CT1 lam4n13 ) ( - 1 ) ) 0 ) ( = ( + ( * ( - 1 ) lam4n0 ) ( * ( - 1 ) lam4n5 ) ( * ( - 1 ) lam4n6 ) ( * ( - 1 ) lam4n7 ) ( * Nl4arg11 lam4n13 ) ) 0 ) ( = ( + ( * ( - 1 ) lam4n8 ) ( * Nl4arg21 lam4n13 ) ) 0 ) ( = ( + ( * 1 lam4n8 ) ( * ( - 1 ) lam4n12 ) ( * Nl4arg31 lam4n13 ) ) 0 ) ( = ( * Nl4arg41 lam4n13 ) 0 ) ( = ( * Nl4arg51 lam4n13 ) 0 ) ( = ( + ( * ( - 1 ) lam4n1 ) ( * 1 lam4n5 ) ( * ( - 1 ) lam4n9 ) ) 0 ) ( = ( + ( * ( - 1 ) lam4n2 ) ( * 1 lam4n6 ) ( * ( - 1 ) lam4n10 ) ) 0 ) ( = ( + ( * ( - 1 ) lam4n3 ) ( * 1 lam4n7 ) ( * ( - 1 ) lam4n11 ) ) 0 ) ( = ( + ( * ( - 1 ) lam4n4 ) ( * 1 lam4n9 ) ( * 1 lam4n10 ) ( * 1 lam4n11 ) ) 0 ) ) ) ( and ( and ( <= ( + 1 ( * ( - 1 ) arg1 ) ) 0 ) ( <= ( + 1 ( * ( - 1 ) undef21 ) ) 0 ) ( <= ( + 1 ( * ( - 1 ) undef41 ) ) 0 ) ( <= ( + 1 ( * ( - 1 ) undef42 ) ) 0 ) ( <= ( + 1 ( * ( - 1 ) undef44 ) ) 0 ) ( <= ( + 1 ( * ( - 1 ) undef66 ) ) 0 ) ( not ( <= 1 0 ) ) ( <= ( + ( * ( - 1 ) arg1 ) undef21 ) 0 ) ( <= ( + ( * ( - 1 ) arg2 ) arg3 ) 0 ) ( <= ( + ( * ( - 1 ) undef41 ) undef66 ) 0 ) ( <= ( + ( * ( - 1 ) undef42 ) undef66 ) 0 ) ( <= ( + ( * ( - 1 ) undef44 ) undef66 ) 0 ) ( <= ( + 2 ( * ( - 1 ) arg3 ) ) 0 ) ( <= ( + ( + ( + ( + ( + Nl4CT1 ( * Nl4arg11 0 ) ) ( * Nl4arg21 0 ) ) ( * Nl4arg41 0 ) ) ( * Nl4arg51 0 ) ) ( * ( + 0 Nl4arg31 ) arg3 ) ( * ( + 0 ( * Nl4arg11 1 ) ) undef21 ) ( * ( + 0 ( * Nl4arg41 1 ) ) undef24 ) ( * ( + 0 ( * Nl4arg51 1 ) ) undef25 ) ) 0 ) ) ( and ( >= lam0n0 0 ) ( >= lam0n1 0 ) ( >= lam0n2 0 ) ( >= lam0n3 0 ) ( >= lam0n4 0 ) ( >= lam0n5 0 ) ( >= lam0n6 0 ) ( >= lam0n7 0 ) ( >= lam0n8 0 ) ( >= lam0n9 0 ) ( >= lam0n10 0 ) ( >= lam0n11 0 ) ( >= lam0n12 0 ) ( >= lam0n13 0 ) ( > ( + ( * 1 lam0n0 ) ( * 1 lam0n1 ) ( * 1 lam0n2 ) ( * 1 lam0n3 ) ( * 1 lam0n4 ) ( * 1 lam0n5 ) ( * 1 lam0n6 ) ( * 2 lam0n12 ) ( * Nl4CT1 lam0n13 ) ( - 1 ) ) 0 ) ( = ( + ( * ( - 1 ) lam0n0 ) ( * ( - 1 ) lam0n8 ) ( * Nl4arg11 lam0n13 ) ) 0 ) ( = ( + ( * 1 lam0n1 ) ( * Nl4arg21 lam0n13 ) ) 0 ) ( = ( + ( * ( - 1 ) lam0n1 ) ( * ( - 1 ) lam0n12 ) ( * Nl4arg31 lam0n13 ) ) 0 ) ( = ( * Nl4arg41 lam0n13 ) 0 ) ( = ( * Nl4arg51 lam0n13 ) 0 ) ( = ( + ( * ( - 1 ) lam0n2 ) ( * 1 lam0n8 ) ) 0 ) ( = ( + ( * ( - 1 ) lam0n3 ) ( * ( - 1 ) lam0n9 ) ) 0 ) ( = ( + ( * ( - 1 ) lam0n4 ) ( * ( - 1 ) lam0n10 ) ) 0 ) ( = ( + ( * ( - 1 ) lam0n5 ) ( * ( - 1 ) lam0n11 ) ) 0 ) ( = ( + ( * ( - 1 ) lam0n6 ) ( * 1 lam0n9 ) ( * 1 lam0n10 ) ( * 1 lam0n11 ) ) 0 ) ) ) ))
(check-sat)
(exit)
